(declare-const |k'| Int)
(declare-const j Int)
(declare-const k Int)
(declare-const term_to_project_onto_integralized Int)
(declare-const term_to_project_onto0_integralized Int)
(declare-const |j'| Int)
(assert (exists ((standardize_int?1 Int) (quotient_integralized?2 Int))
         (and (= standardize_int?1 quotient_integralized?2) (<= (- j) 0)
                (= (+ (- k) |k'| 4) 0) (= (+ |j'| (- j) 4) 0)
                (= (+ term_to_project_onto0_integralized (- (+ |j'| (- j)))) 0)
                (= (+ term_to_project_onto_integralized (- (+ |k'| (- k)))) 0)
                (= j (* 2 quotient_integralized?2)))))